(set-info :smt-lib-version 2.6)
(set-info :category "crafted")
(set-option :produce-models true)
(set-option :incremental true)
(define-sort F () (_ FiniteField 11))
(set-logic QF_FF)
(declare-fun A-1-0 () F)
(assert ( = (ff.mul (ff.mul (as ff1 F) A-1-0) (ff.add (as ff1 F) (ff.neg A-1-0))) (as ff0 F)))
(assert ( = (ff.mul (ff.mul (as ff1 F) A-1-0) (ff.add (as ff1 F) (ff.neg A-1-0))) (as ff0 F)))
(declare-fun A-0-0 () F)
(declare-fun A-2-0 () F)
(assert ( = (ff.mul (as ff1 F) (ff.add (ff.add A-0-0 (ff.mul (as ff2 F) A-1-0)) (ff.neg A-2-0))) (as ff0 F)))
(assert ( = A-2-0 (as ff0 F)))
(check-sat)
(get-value (A-1-0))
(get-value (A-2-0))
(get-value (A-0-0))
(check-sat)
(get-value (A-1-0))
(get-value (A-2-0))
(get-value (A-0-0))
(push 1)
(assert (and (and (or (not ( = A-1-0 (as ff0 F)))(not ( = A-2-0 (as ff0 F)))(not ( = A-0-0 (as ff0 F)))))))
(check-sat)
(get-value (A-1-0))
(get-value (A-2-0))
(get-value (A-0-0))
